c is-unsat
p cnf 10 68
-10 -3 -6 0
9 -10 -7 0
-1 -4 2 0
-6 5 -9 0
-6 -4 7 0
-4 10 1 0
3 -10 -7 0
-5 -2 -1 0
-2 -4 1 0
-7 -10 -1 0
-3 -9 -6 0
2 -1 -7 0
-2 -3 -10 0
-5 3 9 0
-1 -9 -2 0
1 -3 -7 0
-7 -2 -4 0
4 8 5 0
-2 -9 -3 0
-5 -4 9 0
-1 -2 -9 0
-10 2 -9 0
-10 -3 -1 0
9 6 -5 0
-8 -1 -10 0
1 -5 -10 0
-3 2 9 0
-6 4 -9 0
-10 -5 -3 0
3 -10 -8 0
-3 -7 -9 0
1 10 -3 0
-5 3 8 0
-8 -1 -7 0
-1 10 -3 0
-9 -7 -5 0
-2 5 -1 0
-10 2 9 0
-8 -6 1 0
1 -2 -8 0
-1 7 3 0
-4 -7 8 0
-9 7 -1 0
-1 2 -9 0
-4 -6 -8 0
-4 -7 -2 0
-8 -1 10 0
7 2 -8 0
5 10 -2 0
-7 6 -8 0
-5 -8 -7 0
3 -2 1 0
7 6 -4 0
-7 -10 -5 0
-5 8 2 0
-8 -3 -2 0
-3 -9 -4 0
4 3 10 0
-9 6 -8 0
4 7 -2 0
6 -4 -7 0
-1 2 6 0
-4 -6 -10 0
-6 2 -4 0
-8 -5 9 0
-1 -8 3 0
-1 2 -4 0
6 7 2 0
